COLUMNS

passenger_count
pickup_ID
dropoff_ID
request_time_sec
pickup_district
dropoff_district
LDuals
IDuals
vehicle_ID
pick_position
drop_position

REQUESTS_INFO
2      992       654       30204     290       189       97        97        972       1         2         
3      134       1402      30210     9         129       0         0         0         0         0         
2      621       738       30210     280       189       0         0         0         0         0         
1      233       673       30210     206       189       0         0         0         0         0         
3      134       1402      30210     9         129       0         0         0         0         0         
1      815       628       30212     290       189       0         0         0         0         0         
1      356       435       30213     119       52        0         0         0         0         0         
1      1055      747       30213     84        290       0         0         0         0         0         
2      419       504       30213     168       52        0         0         0         0         0         
1      626       850       30213     189       291       0         0         0         0         0         
1      1053      1178      30214     84        84        0         0         0         0         0         
1      744       580       30214     290       189       0         0         0         0         0         
1      599       695       30216     280       189       0         0         0         0         0         
3      926       527       30216     290       52        0         0         0         0         0         
3      992       699       30216     290       290       0         0         0         0         0         
2      992       699       30216     290       290       0         0         0         0         0         
1      461       443       30217     189       168       0         0         0         0         0         
1      716       527       30218     189       52        0         0         0         0         0         
1      317       279       30218     277       87        0         0         0         0         0         
1      392       549       30219     52        52        0         0         0         0         0         
1      156       333       30219     286       119       0         0         0         0         0         
3      576       826       30219     189       291       0         0         0         0         0         
2      576       826       30219     189       291       0         0         0         0         0         
1      781       1227      30220     291       192       0         0         0         0         0         
1      443       884       30220     168       290       0         0         0         0         0         
3      475       458       30220     52        52        0         0         0         0         0         
2      475       458       30220     52        52        0         0         0         0         0         
1      621       735       30220     280       131       0         0         0         0         0         
1      737       371       30221     189       52        0         0         0         0         0         
2      945       349       30222     50        127       0         0         0         0         0         
2      332       392       30223     87        52        0         0         0         0         0         
3      332       392       30223     87        52        0         0         0         0         0         
1      894       371       30224     291       52        0         0         0         0         0         
1      647       712       30224     280       131       0         0         0         0         0         
1      317       697       30224     277       189       0         0         0         0         0         
1      47        397       30225     98        168       0         0         0         0         0         
1      596       134       30225     131       9         0         0         0         0         0         
1      1207      1247      30225     192       129       0         0         0         0         0         
1      970       816       30227     290       290       0         0         0         0         0         
2      1004      1048      30227     291       291       0         0         0         0         0         
1      929       415       30229     290       100       0         0         0         0         0         
1      336       332       30230     277       87        0         0         0         0         0         
1      556       1660      30231     199       142       0         0         0         0         0         
1      200       217       30232     87        87        0         0         0         0         0         
1      631       506       30232     189       189       0         0         0         0         0         
1      325       251       30234     299       127       0         0         0         0         0         
1      727       551       30234     290       189       0         0         0         0         0         
1      623       793       30235     280       290       0         0         0         0         0         
1      398       430       30237     168       52        0         0         0         0         0         
2      1199      1211      30237     84        129       0         0         0         0         0         
1      374       716       30238     119       189       0         0         0         0         0         
1      336       723       30238     277       290       0         0         0         0         0         
1      595       621       30238     131       280       0         0         0         0         0         
